25 1 13 1 16 1 13 1 9 3 11 3 25 1 13 1 16 1 13 1 9 3 11 3
25 8 25 8 12 8 13 8 16 8 21 8 23 2 21 0 21 3 16 4 13 1 9 3 7 5
25 1 7 1 11 1 7 1 2 3 1 3 25 1 7 1 11 1 7 1 2 3 1 3
25 8 25 8 1 8 2 8 6 8 9 8 14 5 14 8 13 8 11 8 13 3 6 5
25 1 23 1 21 1 19 1 21 3 16 3
16 2 15 0 13 0 14 0 16 0 18 0 6 2 7 0 7 3
7 2 15 0 13 0 15 0 16 0 18 0 8 2 9 0 9 3
25 1 9 1 12 1 9 1 7 3 6 3 25 1 9 1 12 1 9 1 4 3 3 3
25 8 25 8 3 8 4 8 9 8 13 8 18 2 13 0 13 3
25 8 25 8 10 8 11 8 14 8 18 8 24 2 23 0 23 3
11 1 9 1 6 1 9 1 16 5 16 1 13 1 6 8 9 8 18 8 16 5
